jobs  (incl. supersource/sink ):	52
RESOURCES
- renewable                 : 2 R
- nonrenewable              : 4 N
- doubly constrained        : 0 D
************************************************************************
PRECEDENCE RELATIONS:
jobnr.    #modes  #successors   successors
1	1	19		2 3 4 5 6 7 8 9 10 12 14 15 16 18 19 23 24 28 33 
2	9	6		51 48 47 21 13 11 
3	9	9		51 49 46 32 30 29 26 25 11 
4	9	11		49 48 47 43 38 36 32 31 30 26 22 
5	9	11		50 48 47 46 38 36 32 31 30 25 22 
6	9	7		45 36 32 30 25 22 21 
7	9	12		49 46 42 39 38 37 36 31 30 29 26 25 
8	9	9		50 48 47 46 43 40 38 29 17 
9	9	11		48 47 45 42 41 38 37 36 31 25 20 
10	9	4		51 32 30 11 
11	9	11		45 44 43 41 40 39 38 37 36 34 27 
12	9	10		51 45 42 41 38 37 36 35 29 25 
13	9	10		50 49 41 39 38 37 36 35 34 26 
14	9	11		47 43 42 41 40 39 38 37 36 35 34 
15	9	10		49 48 47 41 40 37 36 35 34 29 
16	9	9		46 45 42 41 38 37 36 35 25 
17	9	7		42 41 39 37 36 34 31 
18	9	6		48 42 39 36 35 25 
19	9	7		50 45 40 38 37 35 34 
20	9	6		44 43 40 39 35 34 
21	9	5		46 38 35 34 29 
22	9	5		42 41 40 39 37 
23	9	5		39 38 37 36 35 
24	9	4		44 41 38 36 
25	9	2		43 34 
26	9	2		45 40 
27	9	2		42 35 
28	9	2		40 34 
29	9	1		44 
30	9	1		34 
31	9	1		35 
32	9	1		39 
33	9	1		34 
34	9	1		52 
35	9	1		52 
36	9	1		52 
37	9	1		52 
38	9	1		52 
39	9	1		52 
40	9	1		52 
41	9	1		52 
42	9	1		52 
43	9	1		52 
44	9	1		52 
45	9	1		52 
46	9	1		52 
47	9	1		52 
48	9	1		52 
49	9	1		52 
50	9	1		52 
51	9	1		52 
52	1	0		
************************************************************************
REQUESTS/DURATIONS
jobnr.	mode	dur	R1	R2	N1	N2	N3	N4	
------------------------------------------------------------------------
1	1	0	0	0	0	0	0	0	
2	1	1	2	5	25	24	22	22	
	2	10	2	4	22	23	22	20	
	3	13	2	4	21	22	22	18	
	4	19	2	4	18	22	22	17	
	5	20	2	4	17	20	22	14	
	6	21	1	4	15	20	22	12	
	7	25	1	4	13	18	22	10	
	8	26	1	4	11	18	22	9	
	9	27	1	4	7	17	22	7	
3	1	1	2	2	24	16	15	13	
	2	9	1	2	22	14	15	12	
	3	13	1	2	20	14	15	10	
	4	14	1	2	16	13	15	8	
	5	22	1	2	14	13	15	7	
	6	23	1	2	14	12	15	5	
	7	24	1	2	12	12	15	4	
	8	25	1	2	10	11	15	4	
	9	27	1	2	6	11	15	2	
4	1	3	4	2	27	14	14	25	
	2	4	4	1	26	13	13	25	
	3	7	4	1	21	13	13	24	
	4	10	4	1	18	12	12	22	
	5	12	4	1	16	11	10	22	
	6	18	4	1	13	11	10	20	
	7	19	4	1	12	9	9	19	
	8	25	4	1	7	8	7	17	
	9	27	4	1	7	8	7	16	
5	1	3	4	5	9	4	14	21	
	2	6	4	4	9	4	12	21	
	3	8	4	4	9	4	11	21	
	4	9	4	4	9	3	11	21	
	5	10	3	4	9	3	9	21	
	6	11	3	4	8	3	9	21	
	7	19	2	4	8	2	8	21	
	8	25	2	4	8	2	7	21	
	9	29	2	4	8	2	5	21	
6	1	3	5	5	26	20	13	30	
	2	8	4	5	24	17	10	30	
	3	10	4	5	18	16	10	30	
	4	16	3	5	17	14	9	30	
	5	17	3	5	13	12	7	30	
	6	24	2	5	10	10	6	30	
	7	26	2	5	6	9	5	30	
	8	27	1	5	3	5	4	30	
	9	28	1	5	2	3	3	30	
7	1	3	4	5	15	7	24	30	
	2	4	4	4	14	6	24	24	
	3	13	4	4	13	5	22	20	
	4	14	4	3	12	4	22	18	
	5	16	4	3	12	3	19	15	
	6	22	4	3	11	3	18	12	
	7	23	4	2	9	3	17	8	
	8	26	4	2	8	2	16	6	
	9	28	4	2	7	1	14	1	
8	1	1	3	1	18	16	13	27	
	2	9	2	1	18	16	12	27	
	3	17	2	1	18	15	11	25	
	4	18	2	1	18	14	10	24	
	5	20	2	1	17	13	9	24	
	6	21	1	1	17	11	7	23	
	7	26	1	1	17	10	7	21	
	8	29	1	1	17	9	5	21	
	9	30	1	1	17	9	4	20	
9	1	1	5	4	12	13	30	17	
	2	5	4	4	10	12	23	15	
	3	7	4	4	10	11	21	14	
	4	10	4	4	9	11	18	13	
	5	15	4	3	9	11	15	13	
	6	16	4	3	8	10	12	11	
	7	23	4	3	8	10	11	10	
	8	26	4	2	8	9	5	9	
	9	28	4	2	7	9	2	9	
10	1	3	3	4	14	16	22	16	
	2	4	3	4	13	15	21	15	
	3	8	3	4	12	13	21	14	
	4	14	3	4	11	12	20	14	
	5	16	3	4	9	10	20	14	
	6	19	3	3	7	10	19	13	
	7	24	3	3	6	7	19	12	
	8	29	3	3	5	7	19	12	
	9	30	3	3	2	4	18	12	
11	1	3	3	5	13	4	26	28	
	2	5	2	4	13	3	23	27	
	3	6	2	4	13	3	20	25	
	4	14	2	4	13	2	19	24	
	5	16	2	4	13	2	15	24	
	6	17	2	3	13	2	13	23	
	7	18	2	3	13	1	11	23	
	8	28	2	3	13	1	7	21	
	9	30	2	3	13	1	5	21	
12	1	1	1	3	27	19	28	27	
	2	2	1	3	24	19	28	22	
	3	8	1	3	24	17	28	21	
	4	12	1	3	22	13	28	17	
	5	20	1	2	21	10	28	14	
	6	21	1	2	20	8	28	14	
	7	22	1	2	19	6	28	9	
	8	23	1	2	19	4	28	6	
	9	24	1	2	18	3	28	5	
13	1	1	1	3	10	23	23	17	
	2	2	1	2	9	22	22	14	
	3	3	1	2	8	22	20	12	
	4	7	1	2	7	21	20	12	
	5	11	1	1	5	20	19	10	
	6	16	1	1	5	20	18	8	
	7	27	1	1	4	19	17	7	
	8	28	1	1	3	19	16	4	
	9	30	1	1	2	18	14	3	
14	1	4	4	4	18	23	15	29	
	2	6	3	4	17	22	14	26	
	3	8	3	4	17	20	14	24	
	4	10	3	4	17	19	14	23	
	5	16	3	4	17	19	14	22	
	6	17	3	4	17	19	14	19	
	7	20	3	4	17	17	14	17	
	8	22	3	4	17	16	14	16	
	9	24	3	4	17	16	14	15	
15	1	2	3	1	28	29	8	28	
	2	3	3	1	27	26	6	28	
	3	4	3	1	26	24	6	28	
	4	6	3	1	25	21	5	28	
	5	10	3	1	25	18	5	28	
	6	11	3	1	24	14	4	28	
	7	15	3	1	24	12	4	28	
	8	24	3	1	23	9	3	28	
	9	25	3	1	22	5	3	28	
16	1	3	4	5	27	19	26	13	
	2	6	3	4	27	18	23	12	
	3	7	3	4	26	17	20	12	
	4	9	3	4	26	16	19	11	
	5	16	3	3	24	14	15	9	
	6	17	2	3	24	12	13	9	
	7	18	2	2	23	12	10	7	
	8	29	2	2	23	10	6	6	
	9	30	2	2	22	8	2	6	
17	1	1	4	4	28	19	11	18	
	2	4	4	4	28	18	10	18	
	3	5	4	4	27	17	10	18	
	4	13	4	3	26	15	9	17	
	5	18	3	3	26	14	8	17	
	6	19	3	3	25	12	6	16	
	7	23	3	3	25	10	6	15	
	8	26	3	2	24	10	5	15	
	9	29	3	2	24	8	4	15	
18	1	3	3	5	25	10	24	24	
	2	4	2	4	25	10	21	22	
	3	10	2	4	25	9	21	21	
	4	16	2	4	25	9	17	19	
	5	17	1	4	24	9	15	18	
	6	21	1	4	24	8	14	17	
	7	22	1	4	24	8	12	16	
	8	23	1	4	23	7	9	14	
	9	24	1	4	23	7	8	13	
19	1	3	3	2	14	21	24	27	
	2	9	3	2	14	21	23	27	
	3	12	3	2	12	21	22	27	
	4	16	3	2	10	20	21	26	
	5	20	3	2	7	19	18	25	
	6	21	3	2	6	19	17	25	
	7	22	3	2	5	18	14	25	
	8	23	3	2	2	18	12	24	
	9	24	3	2	2	18	11	24	
20	1	5	4	4	18	29	19	7	
	2	10	4	3	16	28	18	5	
	3	13	3	3	16	26	17	5	
	4	14	3	3	15	26	16	4	
	5	16	3	3	13	25	16	4	
	6	18	2	3	12	23	16	3	
	7	19	1	3	10	22	15	2	
	8	24	1	3	8	21	14	1	
	9	27	1	3	7	21	13	1	
21	1	6	4	4	23	28	26	25	
	2	7	4	4	23	28	25	24	
	3	8	4	4	23	28	25	21	
	4	10	4	4	23	28	25	20	
	5	15	4	4	23	28	25	18	
	6	18	4	4	23	27	25	16	
	7	19	4	4	23	27	25	14	
	8	20	4	4	23	27	25	11	
	9	25	4	4	23	27	25	10	
22	1	3	5	5	26	29	28	29	
	2	4	4	4	25	26	24	28	
	3	7	3	4	24	26	23	26	
	4	8	3	4	22	22	17	26	
	5	11	2	4	22	21	16	25	
	6	16	2	3	21	18	12	24	
	7	23	2	3	20	18	8	22	
	8	25	1	3	19	14	6	21	
	9	28	1	3	19	14	2	21	
23	1	8	4	3	8	27	15	29	
	2	9	4	3	8	24	14	26	
	3	14	4	3	8	21	12	24	
	4	15	4	2	8	18	11	22	
	5	17	3	2	8	18	10	22	
	6	18	3	2	8	15	9	20	
	7	24	3	1	8	12	9	18	
	8	25	2	1	8	12	8	16	
	9	28	2	1	8	9	7	15	
24	1	3	4	5	16	10	11	10	
	2	12	3	4	12	9	9	10	
	3	13	3	4	12	9	9	8	
	4	14	2	3	11	9	9	8	
	5	15	2	3	8	8	7	6	
	6	20	2	2	7	8	7	5	
	7	23	1	2	6	8	7	3	
	8	24	1	1	2	7	5	2	
	9	30	1	1	2	7	5	1	
25	1	2	4	2	9	22	25	24	
	2	4	3	2	8	22	24	23	
	3	6	3	2	7	22	24	18	
	4	9	3	2	5	22	24	18	
	5	10	3	1	4	22	24	14	
	6	11	3	1	4	22	24	13	
	7	13	3	1	3	22	24	9	
	8	14	3	1	2	22	24	8	
	9	26	3	1	1	22	24	3	
26	1	1	2	1	13	24	29	29	
	2	2	1	1	12	21	27	27	
	3	3	1	1	12	19	27	26	
	4	4	1	1	12	19	26	25	
	5	5	1	1	12	17	26	25	
	6	17	1	1	12	16	25	25	
	7	21	1	1	12	12	24	24	
	8	22	1	1	12	11	23	22	
	9	25	1	1	12	9	23	22	
27	1	4	3	1	14	27	20	24	
	2	5	3	1	11	26	19	21	
	3	12	3	1	11	25	19	20	
	4	13	3	1	10	23	19	19	
	5	14	2	1	9	20	19	19	
	6	23	2	1	7	20	19	16	
	7	24	2	1	6	16	19	16	
	8	27	2	1	6	15	19	14	
	9	28	2	1	5	14	19	14	
28	1	5	4	5	6	29	22	29	
	2	9	4	4	5	28	19	28	
	3	14	4	4	5	27	18	28	
	4	15	4	4	5	26	18	28	
	5	18	3	4	4	25	15	27	
	6	21	3	4	3	24	14	27	
	7	22	2	4	3	22	12	26	
	8	25	2	4	1	21	11	26	
	9	26	2	4	1	21	10	26	
29	1	1	4	4	16	17	27	19	
	2	8	3	4	16	15	27	16	
	3	12	3	4	16	15	23	15	
	4	18	2	4	16	14	21	12	
	5	22	2	4	15	13	18	12	
	6	23	2	4	15	12	15	10	
	7	24	2	4	15	12	14	8	
	8	26	1	4	15	10	11	5	
	9	29	1	4	15	10	7	2	
30	1	7	2	4	21	8	27	21	
	2	9	1	4	16	8	24	20	
	3	15	1	3	14	8	21	20	
	4	16	1	3	13	8	21	19	
	5	18	1	2	11	8	19	19	
	6	19	1	2	8	8	17	19	
	7	26	1	2	7	8	14	19	
	8	27	1	1	5	8	12	18	
	9	28	1	1	3	8	12	18	
31	1	4	4	2	17	27	22	15	
	2	5	4	1	15	25	20	14	
	3	10	4	1	13	25	17	12	
	4	17	4	1	11	25	15	9	
	5	18	4	1	11	23	14	9	
	6	25	3	1	8	23	9	6	
	7	26	3	1	8	22	8	4	
	8	27	3	1	4	21	7	4	
	9	28	3	1	4	21	5	1	
32	1	1	5	3	22	28	25	15	
	2	6	5	3	21	25	25	12	
	3	8	5	3	18	22	25	11	
	4	9	5	3	16	21	25	9	
	5	10	5	2	15	17	24	8	
	6	12	5	2	12	15	24	5	
	7	13	5	2	10	13	23	4	
	8	16	5	2	8	10	23	3	
	9	23	5	2	8	7	23	2	
33	1	5	4	2	24	26	15	13	
	2	13	3	2	23	23	15	12	
	3	15	3	2	23	23	13	12	
	4	16	3	2	22	21	13	12	
	5	22	2	2	22	19	12	12	
	6	23	2	1	22	18	11	11	
	7	24	1	1	21	17	10	11	
	8	28	1	1	21	15	9	11	
	9	30	1	1	21	14	8	11	
34	1	2	3	5	26	12	23	27	
	2	3	3	4	26	12	20	25	
	3	6	3	4	24	12	19	20	
	4	7	3	4	23	12	18	17	
	5	12	3	3	22	12	16	14	
	6	15	3	3	21	12	12	10	
	7	16	3	3	20	12	10	10	
	8	21	3	3	18	12	9	4	
	9	22	3	3	17	12	7	3	
35	1	4	4	5	15	23	19	27	
	2	5	4	4	13	21	17	23	
	3	6	3	4	13	20	13	23	
	4	7	3	3	12	20	13	20	
	5	9	3	2	11	17	11	14	
	6	10	2	2	11	15	7	14	
	7	17	2	2	10	14	6	8	
	8	18	1	1	10	12	4	7	
	9	19	1	1	9	12	1	3	
36	1	7	3	2	27	26	28	18	
	2	10	3	2	23	25	28	17	
	3	12	3	2	20	24	27	17	
	4	15	3	2	16	24	25	16	
	5	19	2	2	15	23	25	16	
	6	24	2	1	12	22	24	15	
	7	25	2	1	10	21	23	14	
	8	26	2	1	7	21	21	14	
	9	30	2	1	2	20	21	13	
37	1	3	4	5	24	21	13	13	
	2	6	4	5	22	17	12	12	
	3	9	4	5	20	17	10	11	
	4	11	4	5	19	14	10	10	
	5	12	4	5	18	11	9	9	
	6	20	4	5	15	9	8	8	
	7	25	4	5	13	6	7	6	
	8	26	4	5	10	5	7	6	
	9	29	4	5	10	4	6	5	
38	1	1	2	1	14	14	17	26	
	2	2	2	1	12	13	15	25	
	3	11	2	1	11	13	15	24	
	4	12	2	1	10	11	15	24	
	5	16	2	1	10	11	14	23	
	6	21	1	1	9	10	13	22	
	7	24	1	1	8	9	12	22	
	8	27	1	1	8	8	11	22	
	9	30	1	1	7	7	11	21	
39	1	2	4	4	23	21	25	26	
	2	5	4	4	23	19	23	25	
	3	6	4	4	21	19	23	24	
	4	7	4	3	19	18	23	22	
	5	11	4	2	16	17	21	19	
	6	13	4	2	13	17	21	19	
	7	15	4	2	10	17	21	17	
	8	23	4	1	9	15	20	15	
	9	25	4	1	6	15	19	13	
40	1	2	5	1	27	12	17	28	
	2	4	5	1	25	11	17	25	
	3	7	5	1	20	10	16	24	
	4	12	5	1	20	9	15	23	
	5	20	5	1	16	8	15	22	
	6	21	5	1	12	7	15	20	
	7	22	5	1	10	5	14	19	
	8	23	5	1	7	5	14	16	
	9	29	5	1	4	3	13	16	
41	1	1	2	4	22	18	24	18	
	2	2	2	4	21	18	20	16	
	3	5	2	4	17	14	20	14	
	4	6	2	4	17	13	17	14	
	5	10	2	4	15	12	15	12	
	6	17	2	4	12	10	11	12	
	7	24	2	4	11	7	11	11	
	8	26	2	4	9	6	9	10	
	9	29	2	4	8	4	7	8	
42	1	1	3	4	9	16	26	23	
	2	7	2	4	9	16	25	22	
	3	9	2	4	9	15	22	21	
	4	13	2	4	9	15	20	21	
	5	24	2	4	8	15	17	20	
	6	25	1	4	8	14	16	18	
	7	26	1	4	8	13	14	18	
	8	29	1	4	8	13	13	17	
	9	30	1	4	8	13	11	15	
43	1	3	3	4	24	15	28	14	
	2	10	2	4	23	13	28	13	
	3	11	2	4	21	12	28	13	
	4	13	2	4	21	11	28	11	
	5	15	2	4	20	11	27	9	
	6	18	1	4	19	9	27	7	
	7	19	1	4	19	9	26	5	
	8	20	1	4	18	8	26	5	
	9	21	1	4	17	6	26	3	
44	1	1	4	5	24	25	14	29	
	2	5	4	4	23	23	12	28	
	3	6	4	4	23	22	12	28	
	4	9	3	4	23	22	11	27	
	5	18	2	3	23	20	10	27	
	6	21	2	3	22	20	10	27	
	7	23	1	2	22	18	10	26	
	8	24	1	2	22	18	8	26	
	9	25	1	2	22	17	8	25	
45	1	3	4	3	20	27	10	21	
	2	4	4	3	19	24	9	20	
	3	8	3	3	17	23	9	19	
	4	9	3	3	16	22	8	18	
	5	10	2	2	16	19	8	17	
	6	13	2	2	15	18	8	16	
	7	25	1	2	15	18	7	16	
	8	29	1	2	14	16	7	14	
	9	30	1	2	13	13	7	14	
46	1	1	3	4	16	2	28	12	
	2	3	3	4	13	2	25	10	
	3	4	3	4	13	2	21	10	
	4	5	3	3	12	2	16	9	
	5	6	3	2	10	2	13	9	
	6	7	3	2	7	1	12	8	
	7	17	3	1	5	1	10	7	
	8	24	3	1	5	1	7	7	
	9	25	3	1	2	1	2	6	
47	1	1	1	2	27	30	13	11	
	2	7	1	2	24	28	11	10	
	3	8	1	2	21	24	10	9	
	4	12	1	2	18	23	10	7	
	5	13	1	2	16	20	8	7	
	6	19	1	2	13	20	7	6	
	7	21	1	2	12	18	6	5	
	8	26	1	2	7	15	5	5	
	9	27	1	2	6	14	4	4	
48	1	2	1	4	23	28	18	21	
	2	3	1	4	22	26	17	20	
	3	8	1	4	22	25	16	20	
	4	11	1	3	21	24	13	19	
	5	12	1	3	21	21	11	18	
	6	17	1	3	20	21	10	16	
	7	22	1	2	20	20	7	15	
	8	23	1	2	20	19	5	14	
	9	27	1	2	19	17	5	14	
49	1	1	2	3	29	27	24	30	
	2	3	1	2	25	27	22	29	
	3	6	1	2	19	24	21	29	
	4	9	1	2	18	23	18	28	
	5	13	1	2	16	21	15	27	
	6	14	1	1	10	20	13	27	
	7	18	1	1	8	19	11	27	
	8	26	1	1	5	16	9	26	
	9	30	1	1	4	16	5	26	
50	1	8	5	2	12	17	22	27	
	2	9	4	2	12	14	19	27	
	3	14	4	2	11	13	17	27	
	4	18	4	2	11	13	16	27	
	5	21	4	2	10	11	14	27	
	6	25	4	2	10	8	14	26	
	7	26	4	2	9	7	12	26	
	8	27	4	2	8	5	10	26	
	9	29	4	2	8	4	9	26	
51	1	5	4	5	19	24	8	26	
	2	6	3	4	19	21	7	25	
	3	9	3	4	17	21	6	25	
	4	12	3	3	14	18	5	24	
	5	14	2	3	13	18	5	21	
	6	15	2	3	11	15	4	20	
	7	16	1	3	10	14	4	20	
	8	19	1	2	8	13	4	18	
	9	26	1	2	6	12	3	18	
52	1	0	0	0	0	0	0	0	
************************************************************************

 RESOURCE AVAILABILITIES 
	R 1	R 2	N 1	N 2	N 3	N 4
	35	36	620	653	650	746

************************************************************************
